nApps = 209
nRes = 9
nActs = 450
nNetworks = 6

assignmentToResources = [1,1,3,2,2,1,1,1,3,2,1,3,1,3,2,2,3,1,2,2,1,2,2,3,2,3,2,2,3,3,1,1,1,1,1,2,3,2,3,2,3,3,3,1,1,2,1,1,3,2,1,1,2,3,1,2,3,1,2,3,3,3,3,1,3,1,3,3,1,1,3,1,3,1,1,1,2,2,3,3,3,3,2,1,2,3,1,2,3,1,1,3,1,2,3,3,1,3,2,2,4,4,4,4,4,6,6,5,5,5,5,5,4,4,4,6,5,5,5,4,4,6,6,4,4,4,4,6,5,5,5,5,5,5,5,6,6,6,4,4,5,5,5,5,4,5,6,6,5,5,6,5,5,6,6,6,6,4,4,4,4,4,4,4,4,4,4,4,6,6,6,6,5,5,6,6,5,6,6,6,4,4,4,4,4,6,6,4,4,5,5,5,5,6,6,6,6,5,6,6,6,4,4,4,4,4,4,4,6,6,6,6,6,4,4,4,4,6,6,6,6,6,6,6,4,4,4,5,6,6,6,6,6,6,4,5,4,6,6,6,6,6,6,5,5,5,7,6,8,6,8,6,7,5,7,5,9,4,8,6,8,6,7,4,8,5,7,6,7,4,8,5,7,5,7,6,8,4,9,5,7,6,8,5,7,4,8,6,7,5,9,6,7,4,8,6,7,4,8,6,7,5,9,6,8,9,8,8,9,9,8,7,9,7,9,9,9,9,9,9,7,7,9,9,8,9,8,7,9,9,8,9,8,7,9,9,7,7,7,7,8,7,7,9,8,7,7,9,9,8,7,7,8,9,9,8,7,9,8,7,8,7,8,9,9,9,9,9,8,8,9,8,8,8,8,8,7,7,7,8,8,7,8,8,8,9,9,8,8,8,8,7,8,9,7,7,9,9,7,7,7,7,7,8,7,8,8,8,9,8,9,8,9,7,7,7,8,7,9,8,8,9,8,7,8,8,8,7,8,9,8,9,7,7,7,8,8,7,7,9,9,9,7,7,8,7,8,8,9,9];

processingTimes = [120,104,128,80,88,104,128,96,96,136,88,128,104,72,80,120,128,56,120,136,136,128,112,136,112,136,128,56,88,104,168,136,48,88,72,128,120,168,136,72,160,80,120,56,80,128,112,128,112,152,104,112,72,128,136,144,128,168,72,56,160,72,136,168,88,144,136,64,144,136,144,104,104,56,104,160,136,128,160,72,48,120,120,136,136,80,128,136,112,144,144,136,96,104,120,120,104,104,48,104,4,4,1000,4,3,8,4,4,4,4,3,500,500,8,3,8,500,3,3,3,3,4,4,4,4,200,5,3,4,500,500,13,3,4,4,3,500,500,3,5,13,5,8,8,4,3,3,5,3,4,3,4,3,3,8,4,200,4,4,3,3,4,4,4,4,500,500,5,1000,1000,4,5,500,5,5,1000,4,4,4,4,3,13,4,4,1000,4,3,4,500,4,4,500,4,500,3,8,3,5,5,5,4,3,1000,3,3,3,5,8,500,4,4,3,3,3,4,4,4,8,23,1000,3,1000,3,4,4,3,5,4,500,4,4,5,5,3,500,500,5,4,4,4,500,3,4,8,500,3,3,4,4,4,4,8,8,3,3,3,3,3,3,5,5,4,4,13,13,3,3,5,5,4,4,11,11,3,3,4,4,7,7,3,3,3,3,5,5,4,4,500,500,500,500,500,500,500,500,3,3,4,4,3,3,5,5,4,4,4,4,1000,4,3,8,4,4,4,4,3,500,500,8,3,8,500,3,3,3,3,4,4,4,4,200,5,3,4,500,500,13,3,4,4,3,500,500,3,5,13,5,8,8,4,3,3,5,3,4,3,4,3,3,8,4,200,4,4,3,3,4,4,4,4,500,500,5,1000,1000,4,5,500,5,5,1000,4,4,4,4,3,13,4,4,1000,4,3,4,500,4,4,500,4,500,3,8,3,5,5,5,4,3,1000,3,3,3,5,8,500,4,4,3,3,3,4,4,4,8,23,1000,3,1000,3,4,4,3,5,4,500,4,4,5,5,3,500,500,5,4,4,4,500,3,4,8,500];

periods = [20000,10000,10000,5000,10000,100000,100000,5000,10000,20000,100000,100000,2000,20000,100000,20000,10000,20000,100000,20000,100000,10000,100000,10000,20000,10000,100000,1000,50000,2000,50000,10000,10000,20000,5000,100000,10000,20000,20000,1000,10000,10000,20000,10000,100000,100000,10000,10000,10000,10000,10000,5000,20000,20000,20000,10000,20000,20000,20000,20000,50000,100000,10000,10000,100000,100000,100000,20000,50000,50000,100000,20000,20000,20000,20000,10000,100000,10000,10000,100000,10000,100000,20000,20000,10000,5000,10000,10000,20000,100000,100000,20000,20000,20000,10000,20000,5000,20000,100000,20000,20000,20000,20000,10000,10000,10000,10000,5000,5000,5000,10000,10000,100000,5000,5000,10000,20000,20000,20000,100000,100000,100000,100000,2000,2000,2000,2000,20000,100000,100000,100000,100000,20000,20000,20000,10000,10000,10000,20000,20000,100000,20000,20000,20000,100000,10000,10000,10000,20000,20000,10000,1000,1000,50000,50000,2000,2000,50000,50000,10000,10000,10000,10000,10000,20000,5000,5000,5000,10000,10000,10000,10000,20000,20000,20000,20000,1000,10000,10000,10000,10000,100000,10000,10000,10000,10000,10000,10000,5000,20000,20000,20000,20000,20000,20000,20000,20000,20000,20000,20000,10000,10000,10000,10000,10000,100000,100000,100000,100000,100000,100000,100000,20000,50000,50000,50000,50000,100000,20000,20000,20000,20000,20000,20000,20000,20000,20000,100000,10000,10000,10000,10000,10000,100000,20000,10000,100000,20000,20000,10000,20000,20000,20000,100000,100000,10000,10000,10000,10000,10000,10000,10000,10000,10000,10000,10000,10000,10000,10000,10000,10000,10000,10000,10000,10000,10000,10000,10000,10000,10000,10000,10000,10000,100000,100000,100000,100000,100000,100000,100000,100000,100000,100000,100000,100000,100000,100000,100000,100000,100000,100000,100000,100000,100000,100000,20000,20000,20000,20000,20000,20000,20000,20000,20000,20000,20000,20000,20000,10000,10000,10000,10000,5000,5000,5000,10000,10000,100000,5000,5000,10000,20000,20000,20000,100000,100000,100000,100000,2000,2000,2000,2000,20000,100000,100000,100000,100000,20000,20000,20000,10000,10000,10000,20000,20000,100000,20000,20000,20000,100000,10000,10000,10000,20000,20000,10000,1000,1000,50000,50000,2000,2000,50000,50000,10000,10000,10000,10000,10000,20000,5000,5000,5000,10000,10000,10000,10000,20000,20000,20000,20000,1000,10000,10000,10000,10000,100000,10000,10000,10000,10000,10000,10000,5000,20000,20000,20000,20000,20000,20000,20000,20000,20000,20000,20000,10000,10000,10000,10000,10000,100000,100000,100000,100000,100000,100000,100000,20000,50000,50000,50000,50000,100000,20000,20000,20000,20000,20000,20000,20000,20000,20000,100000,10000,10000,10000,10000,10000,100000,20000,10000,100000,20000,20000,10000,20000,20000,20000,100000,100000];

assignmentToClusters = [1,2,3,4,2,5,6,7,8,9,6,10,11,12,13,14,15,16,17,18,5,2,5,2,19,20,5,21,22,23,24,25,26,27,28,6,2,29,30,31,2,2,32,33,5,5,2,2,34,2,2,35,36,37,36,2,38,39,36,16,40,41,42,2,5,43,5,36,44,45,6,46,47,48,49,2,6,2,2,6,50,5,36,51,2,52,53,54,55,56,57,58,59,60,2,36,61,62,63,64,65,66,67,68,69,70,71,72,73,74,75,76,77,78,79,80,81,82,83,84,85,86,87,88,89,90,91,92,93,94,95,96,97,98,99,100,101,102,103,104,105,106,107,108,109,110,111,112,113,114,115,116,117,118,119,120,121,122,123,124,125,126,127,128,129,130,131,132,133,134,135,136,137,138,139,140,141,142,143,144,145,146,147,148,149,150,151,152,153,154,155,156,157,158,159,160,161,162,163,164,165,166,167,168,169,170,171,172,173,174,175,176,177,178,179,180,181,182,183,184,185,186,187,188,189,190,191,192,193,194,195,196,197,198,199,200,201,202,203,204,205,206,207,208,209,2,2,2,2,2,2,2,2,2,2,2,2,2,2,2,2,2,2,2,2,2,2,2,2,2,2,2,2,5,5,5,5,5,5,5,5,5,5,5,5,5,5,6,6,6,6,6,6,6,6,16,16,36,36,36,36,36,36,36,36,65,66,67,68,69,70,71,72,73,74,75,76,77,78,79,80,81,82,83,84,85,86,87,88,89,90,91,92,93,94,95,96,97,98,99,100,101,102,103,104,105,106,107,108,109,110,111,112,113,114,115,116,117,118,119,120,121,122,123,124,125,126,127,128,129,130,131,132,133,134,135,136,137,138,139,140,141,142,143,144,145,146,147,148,149,150,151,152,153,154,155,156,157,158,159,160,161,162,163,164,165,166,167,168,169,170,171,172,173,174,175,176,177,178,179,180,181,182,183,184,185,186,187,188,189,190,191,192,193,194,195,196,197,198,199,200,201,202,203,204,205,206,207,208,209];

precedenceAdjList = [[],[246],[],[],[248],[274],[10,288],[],[],[],[292],[],[],[],[],[],[],[296],[],[],[280],[258,260],[276],[256],[],[],[282],[],[],[],[],[],[],[],[],[],[],[],[],[],[],[94],[],[],[284],[286],[272],[75,262],[],[21],[266,268],[],[298],[],[300],[270],[],[],[],[],[],[],[],[],[66],[],[278],[302],[],[],[290],[],[],[],[],[252,254],[294],[264],[],[],[],[],[304],[],[250],[],[],[],[],[],[],[],[],[],[],[67],[],[],[],[],[],[],[],[],[],[],[],[],[],[],[],[],[],[],[],[],[],[],[],[],[],[],[],[],[],[],[],[],[],[],[],[],[],[],[],[],[],[],[],[],[],[],[],[],[],[],[],[],[],[],[],[],[],[],[],[],[],[],[],[],[],[],[],[],[],[],[],[],[],[],[],[],[],[],[],[],[],[],[],[],[],[],[],[],[],[],[],[],[],[],[],[],[],[],[],[],[],[],[],[],[],[],[],[],[],[],[],[],[],[],[],[],[],[],[],[],[],[],[],[],[],[],[],[],[],[],[],[],[],[],[],[],[],[],[],[],[],[],[],[],[],[],[],[],[],[4],[245],[41],[247],[41],[249],[23],[251],[84],[253],[21],[255],[63],[257],[36],[259],[40],[261],[47],[263],[77],[265],[78],[267],[50],[269],[55],[271],[22],[273],[64],[275],[20],[277],[26],[279],[81],[281],[22],[283],[5],[285],[70],[287],[35],[289],[79],[291],[6],[293],[59],[295],[54],[297],[67],[299],[58],[301],[95],[303],[100],[101],[102],[103],[104],[105],[106],[107],[108],[109],[110],[111],[112],[113],[114],[115],[116],[117],[118],[119],[120],[121],[122],[123],[124],[125],[126],[127],[128],[129],[130],[131],[132],[133],[134],[135],[136],[137],[138],[139],[140],[141],[142],[143],[144],[145],[146],[147],[148],[149],[150],[151],[152],[153],[154],[155],[156],[157],[158],[159],[160],[161],[162],[163],[164],[165],[166],[167],[168],[169],[170],[171],[172],[173],[174],[175],[176],[177],[178],[179],[180],[181],[182],[183],[184],[185],[186],[187],[188],[189],[190],[191],[192],[193],[194],[195],[196],[197],[198],[199],[200],[201],[202],[203],[204],[205],[206],[207],[208],[209],[210],[211],[212],[213],[214],[215],[216],[217],[218],[219],[220],[221],[222],[223],[224],[225],[226],[227],[228],[229],[230],[231],[232],[233],[234],[235],[236],[237],[238],[239],[240],[241],[242],[243],[244]];